proyfinal/src/viki/013/experimentInOfficeAgust.take6.output/35debedb-c418-4bbb-b39b-e872d843c6d2.als.dat
{'cnf.clauses': '118081',
 'cnf.totvars': '69608',
 'conflict literals': '49',
 'conflicts': '19',
 'decisions': '9164',
 'memused.mb': '16.77',
 'outcome': 'UNSAT',
 'propagations': '34732',
 'restarts': '1',
 'solver.msecs': 27,
 'task.msecs': 87}
