proyfinal/src/viki/013/experimentInOfficeAgust.take6.output/35debedb-c418-4bbb-b39b-e872d843c6d2.als.out
Reading from standard input... Use '--help' for help.
============================[ Problem Statistics ]=============================
|                                                                             |
|  Number of variables:         69608                                         |
|  Number of clauses:          118081                                         |
|  Parse time:                   0.02 s                                       |
|                                                                             |
============================[ Search Statistics ]==============================
| Conflicts |          ORIGINAL         |          LEARNT          | Progress |
|           |    Vars  Clauses Literals |    Limit  Clauses Lit/Cl |          |
===============================================================================
===============================================================================
restarts              : 1
conflicts             : 19             (693 /sec)
decisions             : 9164           (0.00 % random) (334294 /sec)
propagations          : 34732          (1266990 /sec)
conflict literals     : 49             (0.00 % deleted)
Memory used           : 16.77 MB
CPU time              : 0.027413 s

UNSATISFIABLE
